\ Model qkp01
\ LP format - for model browsing. Use MPS format to capture full model detail.
Maximize
  4 x_16 + 3 x_26 + 37 x_28 + 47 x_33 + x_38 + 18 x_42 + 21 x_47 + 4 x_50
   + 32 x_52 + 37 x_55 + 42 x_62 + 21 x_64 + 33 x_69 + 36 x_70 + 24 x_71
   + 36 x_72 + 31 x_74 + 12 x_98 + 18 x_100 + [ 78 x_1 * x_7
   + 88 x_1 * x_10 + 68 x_1 * x_14 + 86 x_1 * x_20 + 60 x_1 * x_22
   + 28 x_1 * x_24 + 34 x_1 * x_31 + 18 x_1 * x_33 + 20 x_1 * x_34
   + 48 x_1 * x_39 + 90 x_1 * x_41 + 74 x_1 * x_43 + 46 x_1 * x_44
   + 72 x_1 * x_47 + 96 x_1 * x_50 + 80 x_1 * x_53 + 24 x_1 * x_61
   + 18 x_1 * x_62 + 34 x_1 * x_64 + 82 x_1 * x_66 + 90 x_1 * x_68
   + 40 x_1 * x_80 + 26 x_1 * x_84 + 100 x_1 * x_90 + 30 x_1 * x_91
   + 30 x_1 * x_93 + 68 x_1 * x_99 + 2 x_1 * x_100 + 70 x_2 * x_5
   + 6 x_2 * x_7 + 84 x_2 * x_8 + 100 x_2 * x_9 + 20 x_2 * x_10
   + 10 x_2 * x_15 + 98 x_2 * x_17 + 82 x_2 * x_18 + 22 x_2 * x_19
   + 52 x_2 * x_26 + 88 x_2 * x_28 + 24 x_2 * x_31 + 64 x_2 * x_36
   + 14 x_2 * x_52 + 86 x_2 * x_54 + 18 x_2 * x_56 + 66 x_2 * x_57
   + 26 x_2 * x_61 + 76 x_2 * x_66 + 80 x_2 * x_70 + 76 x_2 * x_73
   + 26 x_2 * x_74 + 88 x_2 * x_77 + 58 x_2 * x_78 + 12 x_2 * x_87
   + 32 x_2 * x_88 + 94 x_2 * x_92 + 88 x_2 * x_93 + 8 x_2 * x_94
   + 10 x_2 * x_98 + 62 x_3 * x_10 + 58 x_3 * x_18 + 72 x_3 * x_22
   + 34 x_3 * x_29 + 78 x_3 * x_31 + 66 x_3 * x_33 + 86 x_3 * x_41
   + 96 x_3 * x_42 + 56 x_3 * x_46 + 76 x_3 * x_59 + 64 x_3 * x_63
   + 8 x_3 * x_64 + 50 x_3 * x_67 + 44 x_3 * x_69 + 28 x_3 * x_74
   + 62 x_3 * x_75 + 96 x_3 * x_81 + 58 x_3 * x_83 + 20 x_3 * x_87
   + 96 x_3 * x_93 + 78 x_3 * x_94 + 34 x_3 * x_96 + 84 x_3 * x_100
   + 38 x_4 * x_14 + 10 x_4 * x_17 + 40 x_4 * x_23 + 74 x_4 * x_35
   + 98 x_4 * x_38 + 32 x_4 * x_41 + 72 x_4 * x_42 + 30 x_4 * x_44
   + 36 x_4 * x_45 + 6 x_4 * x_50 + 90 x_4 * x_52 + 100 x_4 * x_55
   + 88 x_4 * x_58 + 42 x_4 * x_59 + 16 x_4 * x_66 + 64 x_4 * x_67
   + 28 x_4 * x_70 + 24 x_4 * x_73 + 76 x_4 * x_74 + 98 x_4 * x_75
   + 58 x_4 * x_78 + 24 x_4 * x_85 + 52 x_4 * x_87 + 30 x_4 * x_88
   + 38 x_4 * x_92 + 76 x_4 * x_93 + 50 x_4 * x_96 + 52 x_5 * x_6
   + 10 x_5 * x_12 + 86 x_5 * x_15 + 30 x_5 * x_17 + 84 x_5 * x_24
   + 72 x_5 * x_25 + 48 x_5 * x_29 + 40 x_5 * x_32 + 70 x_5 * x_43
   + 16 x_5 * x_45 + 78 x_5 * x_49 + 94 x_5 * x_56 + 58 x_5 * x_63
   + 70 x_5 * x_65 + 58 x_5 * x_70 + 46 x_5 * x_73 + 66 x_5 * x_79
   + 46 x_5 * x_81 + 60 x_5 * x_83 + 26 x_5 * x_86 + 40 x_5 * x_88
   + 58 x_5 * x_92 + 10 x_5 * x_93 + 42 x_5 * x_94 + 34 x_5 * x_98
   + 82 x_6 * x_7 + 62 x_6 * x_10 + 88 x_6 * x_11 + 48 x_6 * x_16
   + 2 x_6 * x_18 + 34 x_6 * x_19 + 52 x_6 * x_21 + 38 x_6 * x_27
   + 22 x_6 * x_28 + 12 x_6 * x_35 + 58 x_6 * x_36 + 84 x_6 * x_38
   + 82 x_6 * x_44 + 38 x_6 * x_46 + 34 x_6 * x_50 + 92 x_6 * x_53
   + 26 x_6 * x_71 + 36 x_6 * x_75 + 20 x_6 * x_76 + 48 x_6 * x_77
   + 16 x_6 * x_78 + 90 x_6 * x_84 + 22 x_6 * x_89 + 68 x_6 * x_91
   + 100 x_6 * x_94 + 96 x_7 * x_10 + 100 x_7 * x_15 + 36 x_7 * x_19
   + 48 x_7 * x_20 + 48 x_7 * x_21 + 70 x_7 * x_36 + 20 x_7 * x_41
   + 26 x_7 * x_47 + 84 x_7 * x_49 + 16 x_7 * x_55 + 94 x_7 * x_56
   + 20 x_7 * x_63 + 96 x_7 * x_70 + 34 x_7 * x_79 + 60 x_7 * x_80
   + 68 x_7 * x_81 + 4 x_7 * x_82 + 62 x_7 * x_84 + 76 x_7 * x_87
   + 36 x_7 * x_91 + 86 x_7 * x_97 + 34 x_7 * x_98 + 98 x_7 * x_99
   + 10 x_8 * x_12 + 22 x_8 * x_14 + 68 x_8 * x_26 + 64 x_8 * x_29
   + 76 x_8 * x_35 + 4 x_8 * x_38 + 76 x_8 * x_40 + 56 x_8 * x_45
   + 72 x_8 * x_53 + 66 x_8 * x_54 + 4 x_8 * x_61 + 58 x_8 * x_65
   + 94 x_8 * x_66 + 60 x_8 * x_71 + 52 x_8 * x_76 + 12 x_8 * x_80
   + 96 x_8 * x_84 + 78 x_8 * x_86 + 68 x_8 * x_87 + 22 x_8 * x_89
   + 20 x_9 * x_12 + 76 x_9 * x_16 + 18 x_9 * x_19 + 98 x_9 * x_23
   + 58 x_9 * x_24 + 24 x_9 * x_31 + 58 x_9 * x_32 + 52 x_9 * x_33
   + 18 x_9 * x_34 + 42 x_9 * x_35 + 74 x_9 * x_36 + 52 x_9 * x_37
   + 58 x_9 * x_40 + 18 x_9 * x_41 + 24 x_9 * x_44 + 96 x_9 * x_45
   + 100 x_9 * x_46 + 14 x_9 * x_55 + 86 x_9 * x_56 + 100 x_9 * x_57
   + 86 x_9 * x_65 + 48 x_9 * x_71 + 16 x_9 * x_73 + 82 x_9 * x_84
   + 54 x_9 * x_85 + 54 x_9 * x_86 + 28 x_9 * x_93 + 26 x_9 * x_99
   + 82 x_10 * x_11 + 90 x_10 * x_12 + 94 x_10 * x_14 + 70 x_10 * x_21
   + 54 x_10 * x_27 + 44 x_10 * x_31 + 36 x_10 * x_35 + 66 x_10 * x_37
   + 92 x_10 * x_42 + 26 x_10 * x_44 + 92 x_10 * x_49 + 22 x_10 * x_50
   + 80 x_10 * x_54 + 86 x_10 * x_56 + 38 x_10 * x_57 + 56 x_10 * x_58
   + 18 x_10 * x_61 + 22 x_10 * x_62 + 48 x_10 * x_73 + 62 x_10 * x_80
   + 46 x_10 * x_84 + 16 x_10 * x_97 + 48 x_10 * x_99 + 36 x_11 * x_12
   + 78 x_11 * x_15 + 68 x_11 * x_20 + 4 x_11 * x_21 + 44 x_11 * x_24
   + 2 x_11 * x_27 + 100 x_11 * x_32 + 96 x_11 * x_43 + 72 x_11 * x_55
   + 38 x_11 * x_57 + 62 x_11 * x_63 + 62 x_11 * x_67 + 22 x_11 * x_68
   + 64 x_11 * x_72 + 66 x_11 * x_74 + 8 x_11 * x_77 + 28 x_11 * x_82
   + 14 x_11 * x_83 + 50 x_11 * x_84 + 24 x_11 * x_90 + 34 x_11 * x_95
   + 44 x_11 * x_100 + 16 x_12 * x_13 + 90 x_12 * x_18 + 94 x_12 * x_19
   + 80 x_12 * x_24 + 4 x_12 * x_26 + 38 x_12 * x_27 + 4 x_12 * x_31
   + 82 x_12 * x_32 + 84 x_12 * x_34 + 14 x_12 * x_43 + 50 x_12 * x_46
   + 14 x_12 * x_48 + 88 x_12 * x_54 + 84 x_12 * x_58 + 94 x_12 * x_59
   + 18 x_12 * x_61 + 46 x_12 * x_62 + 44 x_12 * x_64 + 36 x_12 * x_65
   + 40 x_12 * x_76 + 96 x_12 * x_79 + 2 x_12 * x_81 + 16 x_12 * x_83
   + 70 x_12 * x_85 + 6 x_12 * x_88 + 88 x_12 * x_98 + 78 x_13 * x_14
   + 14 x_13 * x_20 + 86 x_13 * x_22 + 74 x_13 * x_25 + 38 x_13 * x_33
   + 18 x_13 * x_36 + 82 x_13 * x_37 + 36 x_13 * x_38 + 66 x_13 * x_43
   + 76 x_13 * x_46 + 78 x_13 * x_47 + 10 x_13 * x_51 + 36 x_13 * x_53
   + 2 x_13 * x_54 + 2 x_13 * x_60 + 88 x_13 * x_64 + 98 x_13 * x_68
   + 100 x_13 * x_71 + 90 x_13 * x_72 + 80 x_13 * x_86 + 62 x_13 * x_92
   + 6 x_13 * x_94 + 16 x_13 * x_96 + 94 x_14 * x_16 + 48 x_14 * x_17
   + 20 x_14 * x_18 + 36 x_14 * x_20 + 90 x_14 * x_26 + 98 x_14 * x_27
   + 60 x_14 * x_30 + 54 x_14 * x_31 + 42 x_14 * x_38 + 66 x_14 * x_39
   + 2 x_14 * x_49 + 78 x_14 * x_54 + 38 x_14 * x_57 + 70 x_14 * x_58
   + 52 x_14 * x_59 + 48 x_14 * x_60 + 6 x_14 * x_70 + 16 x_14 * x_71
   + 8 x_14 * x_72 + 8 x_14 * x_74 + 26 x_14 * x_75 + 52 x_14 * x_85
   + 12 x_14 * x_92 + 46 x_14 * x_98 + 88 x_14 * x_99 + 64 x_15 * x_22
   + 32 x_15 * x_23 + 90 x_15 * x_30 + 46 x_15 * x_35 + 88 x_15 * x_36
   + 94 x_15 * x_42 + 64 x_15 * x_43 + 2 x_15 * x_48 + 12 x_15 * x_51
   + 58 x_15 * x_53 + 12 x_15 * x_57 + 20 x_15 * x_63 + 26 x_15 * x_66
   + 26 x_15 * x_68 + 86 x_15 * x_75 + 62 x_15 * x_77 + 40 x_15 * x_82
   + 30 x_15 * x_84 + 86 x_15 * x_90 + 66 x_15 * x_93 + 86 x_15 * x_96
   + 76 x_15 * x_100 + 96 x_16 * x_20 + 56 x_16 * x_21 + 36 x_16 * x_23
   + 12 x_16 * x_31 + 16 x_16 * x_34 + 76 x_16 * x_35 + 40 x_16 * x_38
   + 12 x_16 * x_40 + 40 x_16 * x_44 + 54 x_16 * x_45 + 44 x_16 * x_47
   + 18 x_16 * x_59 + 94 x_16 * x_67 + 56 x_16 * x_77 + 74 x_16 * x_78
   + 72 x_16 * x_80 + 4 x_16 * x_82 + 94 x_16 * x_84 + 54 x_16 * x_89
   + 24 x_16 * x_90 + 72 x_16 * x_91 + 82 x_16 * x_97 + 6 x_16 * x_98
   + 16 x_17 * x_24 + 36 x_17 * x_27 + 66 x_17 * x_29 + 88 x_17 * x_30
   + 30 x_17 * x_34 + 50 x_17 * x_46 + 10 x_17 * x_48 + 46 x_17 * x_54
   + 8 x_17 * x_56 + 14 x_17 * x_61 + 6 x_17 * x_64 + 48 x_17 * x_70
   + 2 x_17 * x_72 + 10 x_17 * x_75 + 82 x_17 * x_76 + 88 x_17 * x_81
   + 70 x_17 * x_85 + 98 x_17 * x_88 + 56 x_17 * x_89 + 62 x_17 * x_90
   + 40 x_17 * x_94 + 86 x_17 * x_96 + 76 x_17 * x_97 + 8 x_18 * x_19
   + 46 x_18 * x_26 + 8 x_18 * x_27 + 24 x_18 * x_28 + 20 x_18 * x_30
   + 58 x_18 * x_33 + 64 x_18 * x_41 + 64 x_18 * x_42 + 18 x_18 * x_45
   + 14 x_18 * x_49 + 68 x_18 * x_60 + 36 x_18 * x_64 + 46 x_18 * x_71
   + 4 x_18 * x_74 + 94 x_18 * x_77 + 44 x_18 * x_88 + 76 x_18 * x_89
   + 86 x_18 * x_93 + 16 x_18 * x_95 + 4 x_19 * x_21 + 34 x_19 * x_23
   + 64 x_19 * x_28 + 20 x_19 * x_29 + 8 x_19 * x_30 + 80 x_19 * x_32
   + 44 x_19 * x_33 + 20 x_19 * x_34 + 12 x_19 * x_45 + 88 x_19 * x_46
   + 4 x_19 * x_52 + 64 x_19 * x_55 + 92 x_19 * x_56 + 96 x_19 * x_57
   + 46 x_19 * x_59 + 96 x_19 * x_64 + 66 x_19 * x_73 + 48 x_19 * x_81
   + 96 x_19 * x_84 + 90 x_19 * x_94 + 26 x_19 * x_95 + 44 x_20 * x_27
   + 60 x_20 * x_44 + 28 x_20 * x_45 + 42 x_20 * x_46 + 56 x_20 * x_53
   + 16 x_20 * x_57 + 70 x_20 * x_59 + 28 x_20 * x_71 + 30 x_20 * x_75
   + 36 x_20 * x_77 + 42 x_20 * x_79 + 26 x_20 * x_81 + 4 x_20 * x_84
   + 16 x_20 * x_91 + 68 x_20 * x_96 + 86 x_21 * x_23 + 38 x_21 * x_31
   + 74 x_21 * x_32 + 72 x_21 * x_36 + 64 x_21 * x_37 + 96 x_21 * x_39
   + 98 x_21 * x_40 + 66 x_21 * x_49 + 96 x_21 * x_58 + 88 x_21 * x_68
   + 40 x_21 * x_76 + 14 x_21 * x_80 + 24 x_21 * x_82 + 12 x_21 * x_86
   + 64 x_21 * x_92 + 34 x_21 * x_93 + 92 x_21 * x_94 + 94 x_21 * x_98
   + 38 x_22 * x_23 + 2 x_22 * x_24 + 2 x_22 * x_25 + 6 x_22 * x_41
   + 72 x_22 * x_43 + 22 x_22 * x_47 + 94 x_22 * x_56 + 84 x_22 * x_61
   + 4 x_22 * x_68 + 62 x_22 * x_69 + 36 x_22 * x_71 + 94 x_22 * x_73
   + 10 x_22 * x_76 + 6 x_22 * x_87 + 68 x_22 * x_89 + 50 x_22 * x_91
   + 80 x_22 * x_93 + 42 x_22 * x_95 + 28 x_22 * x_97 + 80 x_22 * x_98
   + 46 x_22 * x_100 + 36 x_23 * x_25 + 56 x_23 * x_27 + 38 x_23 * x_30
   + 36 x_23 * x_34 + 54 x_23 * x_41 + 100 x_23 * x_42 + 100 x_23 * x_45
   + 34 x_23 * x_47 + 94 x_23 * x_55 + 6 x_23 * x_58 + 18 x_23 * x_60
   + 10 x_23 * x_62 + 12 x_23 * x_76 + 90 x_23 * x_82 + 26 x_23 * x_93
   + 24 x_24 * x_32 + 68 x_24 * x_34 + 2 x_24 * x_39 + 68 x_24 * x_54
   + 38 x_24 * x_63 + 8 x_24 * x_67 + 76 x_24 * x_70 + 84 x_24 * x_75
   + 18 x_24 * x_84 + 34 x_24 * x_93 + 10 x_24 * x_94 + 70 x_24 * x_96
   + 98 x_24 * x_97 + 46 x_24 * x_100 + 40 x_25 * x_28 + 94 x_25 * x_30
   + 52 x_25 * x_32 + 48 x_25 * x_35 + 42 x_25 * x_38 + 16 x_25 * x_41
   + 30 x_25 * x_43 + 24 x_25 * x_45 + 48 x_25 * x_47 + 72 x_25 * x_48
   + 80 x_25 * x_56 + 36 x_25 * x_58 + 8 x_25 * x_63 + 94 x_25 * x_71
   + 58 x_25 * x_73 + 70 x_25 * x_89 + 50 x_25 * x_92 + 82 x_25 * x_93
   + 98 x_25 * x_97 + 14 x_26 * x_27 + 24 x_26 * x_28 + 24 x_26 * x_34
   + 92 x_26 * x_38 + 2 x_26 * x_43 + 44 x_26 * x_46 + 58 x_26 * x_50
   + 26 x_26 * x_53 + 28 x_26 * x_59 + 48 x_26 * x_69 + 2 x_26 * x_70
   + 88 x_26 * x_73 + 30 x_26 * x_75 + 16 x_26 * x_81 + 48 x_26 * x_89
   + 20 x_26 * x_92 + 42 x_26 * x_98 + 44 x_26 * x_99 + 100 x_27 * x_29
   + 22 x_27 * x_32 + 64 x_27 * x_38 + 30 x_27 * x_39 + 40 x_27 * x_41
   + 84 x_27 * x_43 + 92 x_27 * x_52 + 68 x_27 * x_55 + 18 x_27 * x_71
   + 6 x_27 * x_80 + 92 x_27 * x_82 + 52 x_27 * x_86 + 50 x_27 * x_89
   + 20 x_27 * x_100 + 26 x_28 * x_38 + 28 x_28 * x_43 + 50 x_28 * x_48
   + 18 x_28 * x_57 + 20 x_28 * x_58 + 84 x_28 * x_64 + 100 x_28 * x_66
   + 64 x_28 * x_69 + 22 x_28 * x_75 + 60 x_28 * x_76 + 72 x_28 * x_86
   + 78 x_28 * x_90 + 86 x_28 * x_91 + 86 x_28 * x_92 + 6 x_28 * x_98
   + 58 x_29 * x_33 + 84 x_29 * x_43 + 24 x_29 * x_46 + 70 x_29 * x_48
   + 30 x_29 * x_50 + 30 x_29 * x_53 + 70 x_29 * x_54 + 10 x_29 * x_55
   + 68 x_29 * x_56 + 50 x_29 * x_65 + 74 x_29 * x_69 + 72 x_29 * x_70
   + 24 x_29 * x_83 + 14 x_29 * x_99 + 32 x_30 * x_40 + 24 x_30 * x_42
   + 80 x_30 * x_45 + 60 x_30 * x_47 + 50 x_30 * x_48 + 20 x_30 * x_49
   + 98 x_30 * x_52 + 12 x_30 * x_56 + 4 x_30 * x_57 + 86 x_30 * x_58
   + 46 x_30 * x_66 + 8 x_30 * x_67 + 2 x_30 * x_69 + 76 x_30 * x_75
   + 62 x_30 * x_78 + 100 x_30 * x_80 + 62 x_30 * x_83 + 36 x_30 * x_86
   + 48 x_30 * x_94 + 18 x_30 * x_99 + 92 x_31 * x_32 + 30 x_31 * x_33
   + 26 x_31 * x_34 + 60 x_31 * x_35 + 86 x_31 * x_40 + 82 x_31 * x_41
   + 22 x_31 * x_44 + 58 x_31 * x_47 + 78 x_31 * x_49 + 56 x_31 * x_52
   + 78 x_31 * x_53 + 8 x_31 * x_60 + 88 x_31 * x_75 + 16 x_31 * x_81
   + 74 x_31 * x_83 + 38 x_31 * x_85 + 20 x_31 * x_91 + 44 x_31 * x_97
   + 86 x_31 * x_98 + 76 x_31 * x_100 + 90 x_32 * x_38 + 4 x_32 * x_43
   + 62 x_32 * x_46 + 70 x_32 * x_50 + 36 x_32 * x_54 + 68 x_32 * x_57
   + 26 x_32 * x_62 + 78 x_32 * x_64 + 82 x_32 * x_67 + 42 x_32 * x_69
   + 40 x_32 * x_70 + 84 x_32 * x_72 + 88 x_32 * x_78 + 52 x_32 * x_81
   + 8 x_32 * x_88 + 2 x_32 * x_90 + 16 x_32 * x_95 + 22 x_32 * x_96
   + 32 x_33 * x_34 + 10 x_33 * x_35 + 84 x_33 * x_37 + 58 x_33 * x_45
   + 14 x_33 * x_48 + 6 x_33 * x_54 + 76 x_33 * x_55 + 82 x_33 * x_59
   + 50 x_33 * x_60 + 52 x_33 * x_63 + 68 x_33 * x_67 + 24 x_33 * x_68
   + 44 x_33 * x_73 + 30 x_33 * x_76 + 54 x_33 * x_77 + 34 x_33 * x_87
   + 46 x_33 * x_88 + 58 x_33 * x_91 + 30 x_33 * x_93 + 6 x_33 * x_96
   + 88 x_34 * x_36 + 88 x_34 * x_38 + 28 x_34 * x_41 + 46 x_34 * x_42
   + 14 x_34 * x_43 + 36 x_34 * x_47 + 22 x_34 * x_48 + 22 x_34 * x_50
   + 76 x_34 * x_51 + 62 x_34 * x_58 + 44 x_34 * x_66 + 4 x_34 * x_69
   + 92 x_34 * x_84 + 12 x_34 * x_89 + 98 x_34 * x_93 + 4 x_34 * x_95
   + 68 x_35 * x_38 + 8 x_35 * x_39 + 8 x_35 * x_45 + 36 x_35 * x_47
   + 40 x_35 * x_48 + 14 x_35 * x_52 + 30 x_35 * x_56 + 78 x_35 * x_58
   + 64 x_35 * x_59 + 44 x_35 * x_60 + 26 x_35 * x_64 + 36 x_35 * x_66
   + 84 x_35 * x_68 + 58 x_35 * x_70 + 4 x_35 * x_75 + 28 x_35 * x_76
   + 96 x_35 * x_85 + 92 x_35 * x_92 + 86 x_35 * x_94 + 2 x_36 * x_44
   + 96 x_36 * x_45 + 46 x_36 * x_52 + 34 x_36 * x_59 + 30 x_36 * x_60
   + 94 x_36 * x_66 + 70 x_36 * x_69 + 70 x_36 * x_80 + 50 x_36 * x_85
   + 6 x_36 * x_86 + 38 x_36 * x_94 + 72 x_36 * x_96 + 4 x_37 * x_48
   + 2 x_37 * x_49 + 70 x_37 * x_50 + 62 x_37 * x_52 + 56 x_37 * x_54
   + 78 x_37 * x_61 + 100 x_37 * x_63 + 14 x_37 * x_72 + 38 x_37 * x_78
   + 6 x_37 * x_83 + 80 x_37 * x_84 + 68 x_37 * x_89 + 8 x_37 * x_94
   + 46 x_37 * x_97 + 46 x_38 * x_42 + 100 x_38 * x_46 + 92 x_38 * x_49
   + 18 x_38 * x_50 + 20 x_38 * x_53 + 62 x_38 * x_60 + 82 x_38 * x_67
   + 48 x_38 * x_76 + 56 x_38 * x_77 + 8 x_38 * x_82 + 62 x_38 * x_83
   + 22 x_38 * x_84 + 50 x_38 * x_93 + 94 x_38 * x_94 + 26 x_38 * x_97
   + 14 x_38 * x_99 + 48 x_39 * x_40 + 58 x_39 * x_42 + 40 x_39 * x_43
   + 94 x_39 * x_45 + 10 x_39 * x_49 + 68 x_39 * x_54 + 68 x_39 * x_70
   + 82 x_39 * x_77 + 40 x_39 * x_79 + 96 x_39 * x_83 + 36 x_39 * x_90
   + 82 x_39 * x_92 + 82 x_39 * x_93 + 16 x_39 * x_98 + 98 x_39 * x_99
   + 88 x_40 * x_45 + 14 x_40 * x_46 + 42 x_40 * x_48 + 54 x_40 * x_51
   + 30 x_40 * x_56 + 2 x_40 * x_57 + 32 x_40 * x_58 + 94 x_40 * x_62
   + 2 x_40 * x_66 + 100 x_40 * x_83 + 28 x_40 * x_88 + 90 x_40 * x_91
   + 10 x_40 * x_94 + 4 x_40 * x_95 + 52 x_40 * x_98 + 18 x_40 * x_99
   + 50 x_41 * x_45 + 16 x_41 * x_47 + 48 x_41 * x_53 + 98 x_41 * x_54
   + 66 x_41 * x_61 + 84 x_41 * x_64 + 86 x_41 * x_77 + 60 x_41 * x_80
   + 36 x_41 * x_82 + 32 x_41 * x_85 + 50 x_41 * x_89 + 78 x_41 * x_94
   + 76 x_42 * x_47 + 40 x_42 * x_49 + 74 x_42 * x_51 + 44 x_42 * x_52
   + 52 x_42 * x_53 + 36 x_42 * x_58 + 28 x_42 * x_64 + 40 x_42 * x_66
   + 28 x_42 * x_72 + 18 x_42 * x_73 + 18 x_42 * x_75 + 16 x_42 * x_77
   + 80 x_42 * x_80 + 24 x_42 * x_81 + 80 x_42 * x_85 + 80 x_42 * x_86
   + 74 x_42 * x_87 + 88 x_42 * x_89 + 32 x_42 * x_90 + 8 x_43 * x_44
   + 92 x_43 * x_47 + 38 x_43 * x_50 + 100 x_43 * x_52 + 70 x_43 * x_54
   + 44 x_43 * x_62 + 42 x_43 * x_63 + 44 x_43 * x_64 + 58 x_43 * x_71
   + 84 x_43 * x_79 + 46 x_43 * x_84 + 82 x_43 * x_86 + 6 x_43 * x_87
   + 94 x_43 * x_89 + 30 x_43 * x_98 + 56 x_44 * x_45 + 22 x_44 * x_47
   + 66 x_44 * x_51 + 46 x_44 * x_54 + 42 x_44 * x_56 + 8 x_44 * x_64
   + 34 x_44 * x_65 + 28 x_44 * x_73 + 2 x_44 * x_77 + 86 x_44 * x_80
   + 40 x_44 * x_90 + 68 x_44 * x_92 + 36 x_45 * x_46 + 100 x_45 * x_50
   + 64 x_45 * x_51 + 28 x_45 * x_61 + 6 x_45 * x_62 + 90 x_45 * x_67
   + 22 x_45 * x_76 + 48 x_45 * x_82 + 38 x_45 * x_94 + 10 x_45 * x_98
   + 100 x_46 * x_53 + 36 x_46 * x_55 + 92 x_46 * x_57 + 76 x_46 * x_64
   + 32 x_46 * x_66 + 28 x_46 * x_67 + 6 x_46 * x_77 + 24 x_46 * x_81
   + 64 x_46 * x_83 + 42 x_46 * x_89 + 98 x_46 * x_90 + 18 x_46 * x_91
   + 96 x_46 * x_95 + 46 x_46 * x_96 + 60 x_46 * x_97 + 64 x_47 * x_57
   + 48 x_47 * x_69 + 66 x_47 * x_70 + 90 x_47 * x_73 + 78 x_47 * x_74
   + 50 x_47 * x_77 + 34 x_47 * x_84 + 28 x_47 * x_91 + 34 x_47 * x_95
   + 22 x_47 * x_97 + 12 x_47 * x_98 + 96 x_48 * x_49 + 72 x_48 * x_50
   + 8 x_48 * x_52 + 18 x_48 * x_57 + 28 x_48 * x_59 + 84 x_48 * x_75
   + 2 x_48 * x_79 + 18 x_48 * x_80 + 10 x_48 * x_85 + 70 x_48 * x_86
   + 66 x_48 * x_87 + 24 x_48 * x_90 + 54 x_48 * x_94 + 90 x_49 * x_55
   + 98 x_49 * x_60 + 48 x_49 * x_71 + 2 x_49 * x_75 + 50 x_49 * x_79
   + 10 x_49 * x_89 + 100 x_49 * x_90 + 2 x_49 * x_91 + 80 x_49 * x_94
   + 10 x_49 * x_95 + 6 x_49 * x_96 + 74 x_50 * x_51 + 4 x_50 * x_57
   + 46 x_50 * x_58 + 84 x_50 * x_66 + 40 x_50 * x_70 + 12 x_50 * x_71
   + 92 x_50 * x_79 + 58 x_50 * x_80 + 64 x_50 * x_83 + 52 x_50 * x_87
   + 70 x_50 * x_89 + 60 x_50 * x_92 + 96 x_50 * x_93 + 8 x_50 * x_94
   + 64 x_50 * x_95 + 6 x_51 * x_58 + 76 x_51 * x_60 + 54 x_51 * x_68
   + 60 x_51 * x_71 + 44 x_51 * x_77 + 40 x_51 * x_78 + 96 x_51 * x_84
   + 26 x_51 * x_93 + 18 x_51 * x_97 + 56 x_51 * x_98 + 96 x_52 * x_55
   + 56 x_52 * x_58 + 66 x_52 * x_59 + 24 x_52 * x_63 + 22 x_52 * x_65
   + 62 x_52 * x_67 + 70 x_52 * x_71 + 98 x_52 * x_77 + 48 x_52 * x_86
   + 18 x_52 * x_87 + 32 x_52 * x_89 + 86 x_52 * x_90 + 60 x_52 * x_94
   + 98 x_52 * x_100 + 44 x_53 * x_54 + 42 x_53 * x_56 + 16 x_53 * x_62
   + 10 x_53 * x_64 + 64 x_53 * x_69 + 98 x_53 * x_71 + 100 x_53 * x_89
   + 76 x_53 * x_93 + 44 x_53 * x_95 + 28 x_53 * x_96 + 48 x_53 * x_99
   + 42 x_53 * x_100 + 44 x_54 * x_55 + 38 x_54 * x_59 + 30 x_54 * x_62
   + 44 x_54 * x_65 + 86 x_54 * x_67 + 100 x_54 * x_74 + 36 x_54 * x_83
   + 64 x_54 * x_90 + 96 x_54 * x_99 + 54 x_55 * x_56 + 46 x_55 * x_61
   + 24 x_55 * x_62 + 84 x_55 * x_64 + 28 x_55 * x_70 + 96 x_55 * x_71
   + 66 x_55 * x_75 + 34 x_55 * x_80 + 52 x_55 * x_83 + 84 x_55 * x_84
   + 36 x_55 * x_87 + 34 x_55 * x_94 + 92 x_55 * x_95 + 82 x_56 * x_58
   + 12 x_56 * x_60 + 46 x_56 * x_62 + 44 x_56 * x_67 + 4 x_56 * x_69
   + 54 x_56 * x_73 + 56 x_56 * x_76 + 78 x_56 * x_79 + 88 x_56 * x_86
   + 76 x_56 * x_90 + 32 x_56 * x_95 + 36 x_56 * x_98 + 52 x_57 * x_59
   + 62 x_57 * x_61 + 72 x_57 * x_64 + 20 x_57 * x_66 + 18 x_57 * x_71
   + 50 x_57 * x_75 + 18 x_57 * x_81 + 62 x_57 * x_83 + 66 x_57 * x_93
   + 12 x_57 * x_97 + 28 x_58 * x_63 + 12 x_58 * x_71 + 94 x_58 * x_74
   + 68 x_58 * x_77 + 48 x_58 * x_80 + 24 x_58 * x_81 + 38 x_58 * x_82
   + 86 x_58 * x_87 + 22 x_58 * x_89 + 14 x_58 * x_97 + 2 x_59 * x_60
   + 32 x_59 * x_62 + 100 x_59 * x_63 + 78 x_59 * x_66 + 80 x_59 * x_68
   + 62 x_59 * x_73 + 22 x_59 * x_83 + 66 x_59 * x_86 + 32 x_59 * x_88
   + 28 x_59 * x_92 + 52 x_60 * x_61 + 46 x_60 * x_62 + 92 x_60 * x_66
   + 62 x_60 * x_67 + 30 x_60 * x_68 + 68 x_60 * x_71 + 86 x_60 * x_76
   + 52 x_60 * x_80 + 84 x_60 * x_82 + 58 x_60 * x_83 + 4 x_60 * x_86
   + 2 x_60 * x_91 + 38 x_60 * x_94 + 26 x_60 * x_95 + 30 x_60 * x_96
   + 90 x_60 * x_97 + 2 x_61 * x_63 + 46 x_61 * x_69 + 96 x_61 * x_83
   + 98 x_61 * x_87 + 96 x_61 * x_90 + 46 x_61 * x_92 + 58 x_61 * x_95
   + 40 x_61 * x_97 + 32 x_61 * x_98 + 74 x_61 * x_100 + 24 x_62 * x_63
   + 20 x_62 * x_70 + 78 x_62 * x_71 + 78 x_62 * x_82 + 26 x_62 * x_84
   + 90 x_62 * x_85 + 20 x_62 * x_86 + 94 x_62 * x_87 + 36 x_62 * x_89
   + 50 x_62 * x_96 + 72 x_62 * x_98 + 44 x_62 * x_99 + 60 x_63 * x_64
   + 100 x_63 * x_72 + 20 x_63 * x_77 + 96 x_63 * x_78 + 30 x_63 * x_79
   + 20 x_63 * x_80 + 16 x_63 * x_91 + 54 x_64 * x_66 + 34 x_64 * x_72
   + 4 x_64 * x_75 + 18 x_64 * x_76 + 26 x_64 * x_86 + 68 x_64 * x_88
   + 74 x_64 * x_89 + 8 x_64 * x_96 + 22 x_65 * x_68 + 52 x_65 * x_69
   + 14 x_65 * x_72 + 6 x_65 * x_73 + 36 x_65 * x_75 + 38 x_65 * x_76
   + 14 x_65 * x_79 + 94 x_65 * x_89 + 26 x_65 * x_90 + 30 x_65 * x_98
   + 14 x_66 * x_67 + 80 x_66 * x_71 + 40 x_66 * x_72 + 26 x_66 * x_77
   + 14 x_66 * x_79 + 20 x_66 * x_81 + 34 x_66 * x_94 + 44 x_66 * x_96
   + 68 x_67 * x_69 + 52 x_67 * x_70 + 28 x_67 * x_71 + 8 x_67 * x_77
   + 80 x_67 * x_79 + 100 x_67 * x_81 + 76 x_67 * x_92 + 30 x_67 * x_93
   + 90 x_67 * x_95 + 62 x_67 * x_98 + 18 x_68 * x_75 + 54 x_68 * x_85
   + 74 x_68 * x_86 + 74 x_68 * x_87 + 64 x_68 * x_95 + 6 x_69 * x_73
   + 40 x_69 * x_76 + 62 x_69 * x_77 + 100 x_69 * x_78 + 46 x_69 * x_92
   + 20 x_69 * x_99 + 94 x_70 * x_72 + 92 x_70 * x_77 + 38 x_70 * x_78
   + 46 x_70 * x_79 + 94 x_70 * x_80 + 58 x_70 * x_86 + 28 x_70 * x_88
   + 52 x_70 * x_91 + 16 x_70 * x_93 + 6 x_70 * x_96 + 54 x_71 * x_74
   + 56 x_71 * x_75 + 50 x_71 * x_83 + 50 x_71 * x_84 + 38 x_71 * x_86
   + 16 x_71 * x_87 + 72 x_71 * x_100 + 68 x_72 * x_76 + 54 x_72 * x_79
   + 32 x_72 * x_89 + 4 x_72 * x_92 + 24 x_72 * x_95 + 96 x_72 * x_98
   + 82 x_72 * x_99 + 44 x_73 * x_77 + 32 x_73 * x_80 + 40 x_73 * x_82
   + 8 x_73 * x_86 + 96 x_73 * x_87 + 68 x_73 * x_89 + 18 x_73 * x_92
   + 100 x_73 * x_93 + 2 x_73 * x_95 + 94 x_74 * x_79 + 52 x_74 * x_81
   + 80 x_74 * x_84 + 76 x_74 * x_87 + 40 x_74 * x_89 + 66 x_74 * x_90
   + 64 x_74 * x_91 + 4 x_74 * x_95 + 28 x_74 * x_96 + 94 x_75 * x_77
   + 32 x_75 * x_83 + 10 x_75 * x_89 + 78 x_75 * x_92 + 68 x_75 * x_93
   + 96 x_75 * x_95 + 100 x_75 * x_97 + 36 x_75 * x_98 + 84 x_76 * x_79
   + 54 x_76 * x_83 + 32 x_76 * x_89 + 52 x_76 * x_97 + 30 x_76 * x_100
   + 46 x_77 * x_89 + 74 x_77 * x_94 + 40 x_77 * x_95 + 28 x_77 * x_97
   + 72 x_78 * x_82 + 36 x_78 * x_91 + 66 x_78 * x_93 + 24 x_78 * x_94
   + 38 x_79 * x_80 + 56 x_79 * x_96 + 18 x_80 * x_85 + 40 x_80 * x_91
   + 90 x_80 * x_92 + 84 x_80 * x_93 + 12 x_81 * x_84 + 16 x_81 * x_85
   + 42 x_81 * x_86 + 34 x_81 * x_87 + 78 x_81 * x_89 + 6 x_81 * x_93
   + 24 x_82 * x_83 + 2 x_82 * x_88 + 30 x_82 * x_89 + 8 x_82 * x_90
   + 68 x_82 * x_94 + 38 x_82 * x_95 + 94 x_82 * x_97 + 42 x_82 * x_99
   + 76 x_83 * x_87 + 20 x_83 * x_89 + 56 x_83 * x_90 + 70 x_83 * x_93
   + 8 x_83 * x_94 + 58 x_83 * x_98 + 60 x_83 * x_99 + 32 x_84 * x_86
   + 40 x_84 * x_89 + 42 x_84 * x_91 + 24 x_84 * x_95 + 38 x_84 * x_96
   + 42 x_85 * x_86 + 52 x_85 * x_87 + 20 x_85 * x_91 + 92 x_85 * x_94
   + 72 x_85 * x_97 + 6 x_86 * x_93 + 78 x_87 * x_88 + 82 x_87 * x_92
   + 96 x_87 * x_93 + 94 x_87 * x_95 + 98 x_87 * x_96 + 86 x_87 * x_98
   + 66 x_88 * x_90 + 74 x_88 * x_96 + 66 x_88 * x_97 + 76 x_88 * x_98
   + 96 x_88 * x_100 + 10 x_89 * x_91 + 82 x_89 * x_93 + 28 x_89 * x_94
   + 8 x_89 * x_98 + 68 x_90 * x_94 + 54 x_91 * x_94 + 14 x_91 * x_98
   + 62 x_92 * x_96 + 38 x_92 * x_99 + 40 x_94 * x_98 + 12 x_95 * x_97
   + 68 x_95 * x_99 + 80 x_96 * x_98 + 58 x_97 * x_98 + 14 x_97 * x_100
   ] / 2 
Subject To
 R0: 13 x_1 + 20 x_2 + 4 x_3 + 10 x_4 + 23 x_5 + 3 x_6 + 22 x_7 + 4 x_8
   + 6 x_9 + 12 x_10 + 3 x_11 + 14 x_12 + 13 x_13 + 15 x_14 + 2 x_15
   + 6 x_16 + 19 x_17 + 21 x_18 + 3 x_19 + 8 x_20 + 22 x_21 + 14 x_22
   + 11 x_23 + 16 x_24 + 11 x_25 + 18 x_26 + 6 x_27 + 13 x_28 + 23 x_29
   + 25 x_30 + 12 x_31 + 6 x_32 + 20 x_33 + 5 x_34 + 24 x_35 + 17 x_36
   + 20 x_37 + 3 x_38 + 16 x_39 + 16 x_40 + 11 x_41 + 25 x_42 + 10 x_43
   + 21 x_44 + 10 x_45 + 15 x_46 + 6 x_47 + 2 x_48 + 5 x_49 + 20 x_50
   + 16 x_51 + 19 x_52 + 23 x_53 + 23 x_54 + 22 x_55 + 2 x_56 + 6 x_57
   + 21 x_58 + 4 x_59 + 14 x_60 + 24 x_61 + 2 x_62 + 6 x_63 + 20 x_64
   + 2 x_65 + 22 x_66 + 20 x_67 + 9 x_68 + 24 x_69 + x_70 + 3 x_71
   + 11 x_72 + 20 x_73 + 17 x_74 + 6 x_75 + 16 x_76 + 21 x_77 + 17 x_78
   + 20 x_79 + 18 x_80 + 21 x_81 + 23 x_82 + 22 x_83 + 5 x_84 + 3 x_85
   + 20 x_86 + 21 x_87 + 23 x_88 + 2 x_89 + 10 x_90 + 16 x_91 + 23 x_92
   + 7 x_93 + 13 x_94 + x_95 + 23 x_96 + 19 x_97 + 9 x_98 + 6 x_99
   + 8 x_100 <= 436
Bounds
Binaries
 x_1 x_2 x_3 x_4 x_5 x_6 x_7 x_8 x_9 x_10 x_11 x_12 x_13 x_14 x_15 x_16
 x_17 x_18 x_19 x_20 x_21 x_22 x_23 x_24 x_25 x_26 x_27 x_28 x_29 x_30 x_31
 x_32 x_33 x_34 x_35 x_36 x_37 x_38 x_39 x_40 x_41 x_42 x_43 x_44 x_45 x_46
 x_47 x_48 x_49 x_50 x_51 x_52 x_53 x_54 x_55 x_56 x_57 x_58 x_59 x_60 x_61
 x_62 x_63 x_64 x_65 x_66 x_67 x_68 x_69 x_70 x_71 x_72 x_73 x_74 x_75 x_76
 x_77 x_78 x_79 x_80 x_81 x_82 x_83 x_84 x_85 x_86 x_87 x_88 x_89 x_90 x_91
 x_92 x_93 x_94 x_95 x_96 x_97 x_98 x_99 x_100
End
